************************************************************************
file with basedata            : mm10_.bas
initial value random generator: 1113155307
************************************************************************
projects                      :  1
jobs (incl. supersource/sink ):  12
horizon                       :  79
RESOURCES
  - renewable                 :  2   R
  - nonrenewable              :  2   N
  - doubly constrained        :  0   D
************************************************************************
PROJECT INFORMATION:
pronr.  #jobs rel.date duedate tardcost  MPM-Time
    1     10      0       11        3       11
************************************************************************
PRECEDENCE RELATIONS:
jobnr.    #modes  #successors   successors
   1        1          3           2   3   4
   2        3          2           6   7
   3        3          2           9  10
   4        3          2           5  11
   5        3          2           7   8
   6        3          2          10  11
   7        3          1           9
   8        3          1          10
   9        3          1          12
  10        3          1          12
  11        3          1          12
  12        1          0        
************************************************************************
REQUESTS/DURATIONS:
jobnr. mode duration  R 1  R 2  N 1  N 2
------------------------------------------------------------------------
  1      1     0       0    0    0    0
  2      1     2       0    8    9    0
         2     4       9    0    8    0
         3     6       0    6    7    0
  3      1     2       0    3    0    5
         2     4       8    0    0    5
         3    10       0    3    0    4
  4      1     4       0    7   10    0
         2     7       0    5   10    0
         3     9       8    0    0    7
  5      1     1       8    0    0    7
         2     5       4    0    0    6
         3     5       0    8    0    4
  6      1     2       6    0    7    0
         2     8       3    0    6    0
         3    10       0    8    0    8
  7      1     3      10    0    6    0
         2     5       0    6    0    5
         3     8       0    6    4    0
  8      1     4       9    0    7    0
         2     8       0    3    0    8
         3     9       7    0    5    0
  9      1     3       5    0    0    6
         2     8       5    0    6    0
         3     8       0    6    0    3
 10      1     2       5    0    4    0
         2     5       0    7    0    4
         3     6       3    0    1    0
 11      1     1       2    0    0    6
         2     4       0    7    0    6
         3     8       2    0    0    4
 12      1     0       0    0    0    0
************************************************************************
RESOURCEAVAILABILITIES:
  R 1  R 2  N 1  N 2
   13    9   28   34
************************************************************************
MAXIMAL LAGS:
from  to  type  delay
    1   12   ES      0
    1    2   ES      0
    2   12   ES      0
    1    3   ES      0
    3   12   ES      0
    1    4   ES      0
    4   12   ES      0
    1    5   ES      0
    5   12   ES      0
    1    6   ES      0
    6   12   ES      0
    1    7   ES      0
    7   12   ES      0
    1    8   ES      0
    8   12   ES      0
    1    9   ES      0
    9   12   ES      0
    1   10   ES      0
   10   12   ES      0
    1   11   ES      0
   11   12   ES      0
    1   12   ES      0
    2    6   SS     -1
    2    6   SE      1
    2    6   ES      1
    2    6   EE      2
    2    7   SS     11
    2    7   SE    -11
    2    7   ES      9
    2    7   EE      8
    3    9   SS      8
    3    9   SE     -9
    3    9   ES    -11
    3    9   EE      0
    3   10   SS     11
    3   10   SE     -2
    3   10   ES     -9
    3   10   EE     -5
    4    5   SS     -6
    4    5   SE     -6
    4    5   ES      5
    4    5   EE      2
    4   11   SS     -8
    4   11   SE      1
    4   11   ES     -7
    4   11   EE     -4
    5    7   SS      2
    5    7   SE     -5
    5    7   ES    -10
    5    7   EE      2
    5    8   SS      5
    5    8   SE     -9
    5    8   ES    -11
    5    8   EE      8
    6   10   SS      5
    6   10   SE    -12
    6   10   ES    -10
    6   10   EE     12
    6   11   SS     -5
    6   11   SE     -7
    6   11   ES      1
    6   11   EE      3
    7    9   SS      3
    7    9   SE     -6
    9    7   SE      0
    7    9   ES      0
    7    9   EE    -11
    8   10   SS     -7
    8   10   SE      0
    8   10   ES    -12
    8   10   EE      0
************************************************************************
